NAME: line_80_1
TYPE: TSP
COMMENT: line_80_1
DIMENSION: 80
EDGE_WEIGHT_TYPE: EUC_2D
NODE_COORD_SECTION
1 0.0 550.0
2 0.0 574.0
3 0.0 115.0
4 0.0 173.0
5 0.0 512.0
6 0.0 348.0
7 0.0 492.0
8 0.0 687.0
9 0.0 252.0
10 0.0 313.0
11 0.0 99.0
12 0.0 142.0
13 0.0 124.0
14 0.0 63.0
15 0.0 259.0
16 0.0 564.0
17 0.0 25.0
18 0.0 579.0
19 0.0 93.0
20 0.0 676.0
21 0.0 4.0
22 0.0 371.0
23 0.0 75.0
24 0.0 358.0
25 0.0 304.0
26 0.0 498.0
27 0.0 34.0
28 0.0 511.0
29 0.0 615.0
30 0.0 644.0
31 0.0 648.0
32 0.0 322.0
33 0.0 18.0
34 0.0 76.0
35 0.0 200.0
36 0.0 288.0
37 0.0 266.0
38 0.0 170.0
39 0.0 143.0
40 0.0 596.0
41 0.0 621.0
42 0.0 334.0
43 0.0 528.0
44 0.0 578.0
45 0.0 556.0
46 0.0 280.0
47 0.0 307.0
48 0.0 407.0
49 0.0 16.0
50 0.0 125.0
51 0.0 440.0
52 0.0 395.0
53 0.0 659.0
54 0.0 235.0
55 0.0 743.0
56 0.0 301.0
57 0.0 778.0
58 0.0 774.0
59 0.0 792.0
60 0.0 141.0
61 0.0 404.0
62 0.0 587.0
63 0.0 60.0
64 0.0 344.0
65 0.0 245.0
66 0.0 122.0
67 0.0 779.0
68 0.0 259.0
69 0.0 504.0
70 0.0 572.0
71 0.0 455.0
72 0.0 226.0
73 0.0 169.0
74 0.0 311.0
75 0.0 303.0
76 0.0 633.0
77 0.0 397.0
78 0.0 517.0
79 0.0 378.0
80 0.0 792.0
